NAME : TW_20_seed_None_id_0
TYPE : CVRPTW
DIMENSION : 11
EDGE_WEIGHT_TYPE : EUC_2D
CAPACITY : 25
SERVICE_TIME : 100
LATE_COEFF : 0.1
NODE_COORD_SECTION
1	167	921
2	253	511
3	269	29
4	490	531
5	99	888
6	387	345
7	538	313
8	176	372
9	953	919
10	835	665
11	152	642
DEMAND_SECTION
1	0
2	4
3	9
4	8
5	9
6	1
7	3
8	1
9	9
10	6
11	10
TIME_WINDOW_SECTION
1	0	10000
2	6366	8318
3	4626	6679
4	0	1812
5	602	2665
6	1354	3306
7	7536	9546
8	609	2638
9	7247	9294
10	2425	4407
11	5928	7840
DEPOT_SECTION
1
-1
EOF
